tsp_instances/TSP20/instance71.tsp
NODE_COORD_SECTION
0 193 66
1 0 146
2 11 24
3 108 130
4 130 104
5 56 109
6 145 145
7 64 13
8 174 41
9 13 182
10 45 14
11 98 139
12 18 176
13 109 144
14 15 114
15 8 32
16 157 63
17 84 133
18 114 36
19 157 146
