tsp_instances/TSP20/instance71.opt.tour
TOUR_SECTION
1
9
19
8
11
3
16
15
2
10
13
6
18
12
4
14
7
20
5
17
-1